20190630 192300.00 141000.00
20171231 120200.00 74100.00
20170630 120214.87 73979.71
20170524 120214.87 74165.11
20161209 66786.04 39422.44
20160704 66786.04 35987.97
20160621 66810.12 35987.97
20160503 66636.68 35731.85
20151209 33318.34 17864.61
